NAME:10008
COMMENT: From "On the generation of Metric TSP instances with a large integrality gap by branch-and-cut" (Vercesi, Gualandi, Mastrolilli, Gambardella) - https://arxiv.org/abs/2109.02454
TYPE: TSP
DIMENSION: 10
EDGE_WEIGHT_TYPE: EXPLICIT
EDGE_WEIGHT_FORMAT: UPPER_ROW
EDGE_WEIGHT_SECTION
67 101 168 100 34 167 234 133 300 168 167 33 33 234 167 66 233 67 201 135 200 133 234 333 134 134 267 66 167 266 66 267 134 33 200 201 200 99 266 333 300 133 101 200 167 
EOF